(set-logic QF_NRA)
(declare-fun skoSQ3 () Real)
(declare-fun skoX () Real)
(declare-fun pi () Real)
(assert (and (<= (* (- 1) (* skoSQ3 skoSQ3 skoSQ3 skoSQ3 skoSQ3 skoSQ3 skoSQ3 skoSQ3 skoSQ3 skoSQ3 skoSQ3 skoSQ3 skoSQ3 skoSQ3 skoSQ3 skoSQ3 skoSQ3 skoSQ3 skoSQ3 skoSQ3 skoSQ3 skoSQ3)) 0) (and (<= (* skoSQ3 skoSQ3 skoSQ3 skoSQ3 skoSQ3 skoSQ3 skoSQ3 skoSQ3 skoSQ3 skoSQ3 skoSQ3 skoSQ3 skoSQ3 skoSQ3 skoSQ3 skoSQ3 skoSQ3 skoSQ3 skoSQ3 skoSQ3 skoSQ3 skoSQ3) 0) (and (not (<= (+ (* (- 1124000727777607680000) (* skoSQ3 skoSQ3 skoSQ3 skoSQ3 skoSQ3 skoSQ3 skoSQ3 skoSQ3 skoSQ3 skoSQ3 skoSQ3 skoSQ3 skoSQ3 skoSQ3 skoSQ3 skoSQ3 skoSQ3 skoSQ3 skoSQ3 skoSQ3 skoSQ3 skoSQ3)) (* 562000363888803840000 (* skoSQ3 skoSQ3 skoSQ3 skoSQ3 skoSQ3 skoSQ3 skoSQ3 skoSQ3 skoSQ3 skoSQ3 skoSQ3 skoSQ3 skoSQ3 skoSQ3 skoSQ3 skoSQ3 skoSQ3 skoSQ3 skoSQ3 skoSQ3 skoX skoX)) (* (- 46833363657400320000) (* skoSQ3 skoSQ3 skoSQ3 skoSQ3 skoSQ3 skoSQ3 skoSQ3 skoSQ3 skoSQ3 skoSQ3 skoSQ3 skoSQ3 skoSQ3 skoSQ3 skoSQ3 skoSQ3 skoSQ3 skoSQ3 skoX skoX skoX skoX)) (* 1561112121913344000 (* skoSQ3 skoSQ3 skoSQ3 skoSQ3 skoSQ3 skoSQ3 skoSQ3 skoSQ3 skoSQ3 skoSQ3 skoSQ3 skoSQ3 skoSQ3 skoSQ3 skoSQ3 skoSQ3 skoX skoX skoX skoX skoX skoX)) (* (- 27877002177024000) (* skoSQ3 skoSQ3 skoSQ3 skoSQ3 skoSQ3 skoSQ3 skoSQ3 skoSQ3 skoSQ3 skoSQ3 skoSQ3 skoSQ3 skoSQ3 skoSQ3 skoX skoX skoX skoX skoX skoX skoX skoX)) (* 309744468633600 (* skoSQ3 skoSQ3 skoSQ3 skoSQ3 skoSQ3 skoSQ3 skoSQ3 skoSQ3 skoSQ3 skoSQ3 skoSQ3 skoSQ3 skoX skoX skoX skoX skoX skoX skoX skoX skoX skoX)) (* (- 2346549004800) (* skoSQ3 skoSQ3 skoSQ3 skoSQ3 skoSQ3 skoSQ3 skoSQ3 skoSQ3 skoSQ3 skoSQ3 skoX skoX skoX skoX skoX skoX skoX skoX skoX skoX skoX skoX)) (* 12893126400 (* skoSQ3 skoSQ3 skoSQ3 skoSQ3 skoSQ3 skoSQ3 skoSQ3 skoSQ3 skoX skoX skoX skoX skoX skoX skoX skoX skoX skoX skoX skoX skoX skoX)) (* (- 53721360) (* skoSQ3 skoSQ3 skoSQ3 skoSQ3 skoSQ3 skoSQ3 skoX skoX skoX skoX skoX skoX skoX skoX skoX skoX skoX skoX skoX skoX skoX skoX)) (* 175560 (* skoSQ3 skoSQ3 skoSQ3 skoSQ3 skoX skoX skoX skoX skoX skoX skoX skoX skoX skoX skoX skoX skoX skoX skoX skoX skoX skoX)) (* (- 462) (* skoSQ3 skoSQ3 skoX skoX skoX skoX skoX skoX skoX skoX skoX skoX skoX skoX skoX skoX skoX skoX skoX skoX skoX skoX)) (* skoX skoX skoX skoX skoX skoX skoX skoX skoX skoX skoX skoX skoX skoX skoX skoX skoX skoX skoX skoX skoX skoX)) 0)) (and (= (* skoSQ3 skoSQ3) 3) (and (not (<= (+ (* (- 10000000) skoX) (* 5000000 pi)) 1)) (and (not (<= (* 5000000 pi) 15707963)) (and (not (<= (* (- 10000000) pi) (- 31415927))) (and (not (<= skoX 0)) (not (<= skoSQ3 0)))))))))))
(set-info :status unsat)
(check-sat)
